c generated by sgen1
c Command: ./sgen1 -sat -n 10 -s 910 
p cnf 10 24
-1 -2 0
-1 -3 0
-1 -4 0
-1 -5 0
-2 -3 0
-2 -4 0
-2 -5 0
-3 -4 0
-3 -5 0
-4 -5 0
-6 -7 0
-6 -8 0
-6 -9 0
-6 -10 0
-7 -8 0
-7 -9 0
-7 -10 0
-8 -9 0
-8 -10 0
-9 -10 0
8 2 3 9 4 0
6 10 1 5 7 0
10 1 3 5 9 0
6 7 8 2 4 0
